p cnf 889 1799              
-20 -19 -55 0
55 -57 0
19 20 -56 0
56 -57 0
57 -109 0
-22 -21 -58 0
58 -60 0
21 22 -59 0
59 -60 0
60 -109 0
-24 -23 -61 0
61 -63 0
23 24 -62 0
62 -63 0
63 -109 0
-26 -25 -64 0
64 -66 0
25 26 -65 0
65 -66 0
66 -109 0
-28 -27 -67 0
67 -69 0
27 28 -68 0
68 -69 0
69 -109 0
-30 -29 -70 0
70 -72 0
29 30 -71 0
71 -72 0
72 -109 0
-32 -31 -73 0
73 -75 0
31 32 -74 0
74 -75 0
75 -109 0
-34 -33 -76 0
76 -78 0
33 34 -77 0
77 -78 0
78 -109 0
-36 -35 -79 0
79 -81 0
35 36 -80 0
80 -81 0
81 -109 0
-38 -37 -82 0
82 -84 0
37 38 -83 0
83 -84 0
84 -109 0
-40 -39 -85 0
85 -87 0
39 40 -86 0
86 -87 0
87 -109 0
-42 -41 -88 0
88 -90 0
41 42 -89 0
89 -90 0
90 -109 0
-44 -43 -91 0
91 -93 0
43 44 -92 0
92 -93 0
93 -109 0
-46 -45 -94 0
94 -96 0
45 46 -95 0
95 -96 0
96 -109 0
-48 -47 -97 0
97 -99 0
47 48 -98 0
98 -99 0
99 -109 0
-50 -49 -100 0
100 -102 0
49 50 -101 0
101 -102 0
102 -109 0
-52 -51 -103 0
103 -105 0
51 52 -104 0
104 -105 0
105 -109 0
-54 -53 -106 0
106 -108 0
53 54 -107 0
107 -108 0
108 -109 0
109 -742 0
43 320 0
-49 320 0
-43 49 -320 0
44 321 0
-50 321 0
-44 50 -321 0
45 322 0
-51 322 0
-45 51 -322 0
46 323 0
-52 323 0
-46 52 -323 0
47 324 0
-53 324 0
-47 53 -324 0
48 325 0
-54 325 0
-48 54 -325 0
-320 -321 -322 -323 -324 -325 326 0
49 327 0
-43 327 0
50 328 0
-44 328 0
51 329 0
-45 329 0
52 330 0
-46 330 0
53 331 0
-47 331 0
54 332 0
-48 332 0
-327 -328 -329 -330 -331 -332 333 0
-326 -333 334 0
-334 -335 0
37 305 0
-49 305 0
38 306 0
-50 306 0
39 307 0
-51 307 0
40 308 0
-52 308 0
41 309 0
-53 309 0
42 310 0
-54 310 0
-305 -306 -307 -308 -309 -310 311 0
49 312 0
-37 312 0
50 313 0
-38 313 0
51 314 0
-39 314 0
52 315 0
-40 315 0
53 316 0
-41 316 0
54 317 0
-42 317 0
-312 -313 -314 -315 -316 -317 318 0
-311 -318 319 0
-319 -335 0
37 290 0
-43 290 0
-37 43 -290 0
38 291 0
-44 291 0
-38 44 -291 0
39 292 0
-45 292 0
-39 45 -292 0
40 293 0
-46 293 0
-40 46 -293 0
41 294 0
-47 294 0
-41 47 -294 0
42 295 0
-48 295 0
-42 48 -295 0
-290 -291 -292 -293 -294 -295 296 0
43 297 0
-37 297 0
44 298 0
-38 298 0
45 299 0
-39 299 0
46 300 0
-40 300 0
47 301 0
-41 301 0
48 302 0
-42 302 0
-297 -298 -299 -300 -301 -302 303 0
-296 -303 304 0
-304 -335 0
31 275 0
-49 275 0
32 276 0
-50 276 0
33 277 0
-51 277 0
34 278 0
-52 278 0
35 279 0
-53 279 0
36 280 0
-54 280 0
-275 -276 -277 -278 -279 -280 281 0
49 282 0
-31 282 0
50 283 0
-32 283 0
51 284 0
-33 284 0
52 285 0
-34 285 0
53 286 0
-35 286 0
54 287 0
-36 287 0
-282 -283 -284 -285 -286 -287 288 0
-281 -288 289 0
-289 -335 0
31 260 0
-43 260 0
32 261 0
-44 261 0
33 262 0
-45 262 0
34 263 0
-46 263 0
35 264 0
-47 264 0
36 265 0
-48 265 0
-260 -261 -262 -263 -264 -265 266 0
43 267 0
-31 267 0
44 268 0
-32 268 0
45 269 0
-33 269 0
46 270 0
-34 270 0
47 271 0
-35 271 0
48 272 0
-36 272 0
-267 -268 -269 -270 -271 -272 273 0
-266 -273 274 0
-274 -335 0
31 245 0
-37 245 0
-31 37 -245 0
32 246 0
-38 246 0
-32 38 -246 0
33 247 0
-39 247 0
-33 39 -247 0
34 248 0
-40 248 0
-34 40 -248 0
35 249 0
-41 249 0
-35 41 -249 0
36 250 0
-42 250 0
-36 42 -250 0
-245 -246 -247 -248 -249 -250 251 0
37 252 0
-31 252 0
38 253 0
-32 253 0
39 254 0
-33 254 0
40 255 0
-34 255 0
41 256 0
-35 256 0
42 257 0
-36 257 0
-252 -253 -254 -255 -256 -257 258 0
-251 -258 259 0
-259 -335 0
25 230 0
-49 230 0
26 231 0
-50 231 0
27 232 0
-51 232 0
28 233 0
-52 233 0
29 234 0
-53 234 0
30 235 0
-54 235 0
-230 -231 -232 -233 -234 -235 236 0
49 237 0
-25 237 0
50 238 0
-26 238 0
51 239 0
-27 239 0
52 240 0
-28 240 0
53 241 0
-29 241 0
54 242 0
-30 242 0
-237 -238 -239 -240 -241 -242 243 0
-236 -243 244 0
-244 -335 0
25 215 0
-43 215 0
26 216 0
-44 216 0
27 217 0
-45 217 0
28 218 0
-46 218 0
29 219 0
-47 219 0
30 220 0
-48 220 0
-215 -216 -217 -218 -219 -220 221 0
43 222 0
-25 222 0
44 223 0
-26 223 0
45 224 0
-27 224 0
46 225 0
-28 225 0
47 226 0
-29 226 0
48 227 0
-30 227 0
-222 -223 -224 -225 -226 -227 228 0
-221 -228 229 0
-229 -335 0
25 200 0
-37 200 0
26 201 0
-38 201 0
27 202 0
-39 202 0
28 203 0
-40 203 0
29 204 0
-41 204 0
30 205 0
-42 205 0
-200 -201 -202 -203 -204 -205 206 0
37 207 0
-25 207 0
38 208 0
-26 208 0
39 209 0
-27 209 0
40 210 0
-28 210 0
41 211 0
-29 211 0
42 212 0
-30 212 0
-207 -208 -209 -210 -211 -212 213 0
-206 -213 214 0
-214 -335 0
25 185 0
-31 185 0
-25 31 -185 0
26 186 0
-32 186 0
-26 32 -186 0
27 187 0
-33 187 0
-27 33 -187 0
28 188 0
-34 188 0
-28 34 -188 0
29 189 0
-35 189 0
-29 35 -189 0
30 190 0
-36 190 0
-30 36 -190 0
-185 -186 -187 -188 -189 -190 191 0
31 192 0
-25 192 0
32 193 0
-26 193 0
33 194 0
-27 194 0
34 195 0
-28 195 0
35 196 0
-29 196 0
36 197 0
-30 197 0
-192 -193 -194 -195 -196 -197 198 0
-191 -198 199 0
-199 -335 0
19 170 0
-49 170 0
20 171 0
-50 171 0
21 172 0
-51 172 0
22 173 0
-52 173 0
23 174 0
-53 174 0
24 175 0
-54 175 0
-170 -171 -172 -173 -174 -175 176 0
49 177 0
-19 177 0
50 178 0
-20 178 0
51 179 0
-21 179 0
52 180 0
-22 180 0
53 181 0
-23 181 0
54 182 0
-24 182 0
-177 -178 -179 -180 -181 -182 183 0
-176 -183 184 0
-184 -335 0
19 155 0
-43 155 0
20 156 0
-44 156 0
21 157 0
-45 157 0
22 158 0
-46 158 0
23 159 0
-47 159 0
24 160 0
-48 160 0
-155 -156 -157 -158 -159 -160 161 0
43 162 0
-19 162 0
44 163 0
-20 163 0
45 164 0
-21 164 0
46 165 0
-22 165 0
47 166 0
-23 166 0
48 167 0
-24 167 0
-162 -163 -164 -165 -166 -167 168 0
-161 -168 169 0
-169 -335 0
19 140 0
-37 140 0
20 141 0
-38 141 0
21 142 0
-39 142 0
22 143 0
-40 143 0
23 144 0
-41 144 0
24 145 0
-42 145 0
-140 -141 -142 -143 -144 -145 146 0
37 147 0
-19 147 0
38 148 0
-20 148 0
39 149 0
-21 149 0
40 150 0
-22 150 0
41 151 0
-23 151 0
42 152 0
-24 152 0
-147 -148 -149 -150 -151 -152 153 0
-146 -153 154 0
-154 -335 0
19 125 0
-31 125 0
20 126 0
-32 126 0
21 127 0
-33 127 0
22 128 0
-34 128 0
23 129 0
-35 129 0
24 130 0
-36 130 0
-125 -126 -127 -128 -129 -130 131 0
31 132 0
-19 132 0
32 133 0
-20 133 0
33 134 0
-21 134 0
34 135 0
-22 135 0
35 136 0
-23 136 0
36 137 0
-24 137 0
-132 -133 -134 -135 -136 -137 138 0
-131 -138 139 0
-139 -335 0
19 110 0
-25 110 0
-19 25 -110 0
20 111 0
-26 111 0
-20 26 -111 0
21 112 0
-27 112 0
-21 27 -112 0
22 113 0
-28 113 0
-22 28 -113 0
23 114 0
-29 114 0
-23 29 -114 0
24 115 0
-30 115 0
-24 30 -115 0
-110 -111 -112 -113 -114 -115 116 0
25 117 0
-19 117 0
26 118 0
-20 118 0
27 119 0
-21 119 0
28 120 0
-22 120 0
29 121 0
-23 121 0
30 122 0
-24 122 0
-117 -118 -119 -120 -121 -122 123 0
-116 -123 124 0
-124 -335 0
335 -742 0
-19 -336 0
20 -336 0
19 -20 336 0
-1 336 -337 0
1 -336 -337 0
336 -336 -337 0
337 -372 0
-21 -338 0
22 -338 0
21 -22 338 0
-2 338 -339 0
2 -338 -339 0
338 -338 -339 0
339 -372 0
-23 -340 0
24 -340 0
23 -24 340 0
-3 340 -341 0
3 -340 -341 0
340 -340 -341 0
341 -372 0
-25 -342 0
26 -342 0
25 -26 342 0
-4 342 -343 0
4 -342 -343 0
342 -342 -343 0
343 -372 0
-27 -344 0
28 -344 0
27 -28 344 0
-5 344 -345 0
5 -344 -345 0
344 -344 -345 0
345 -372 0
-29 -346 0
30 -346 0
29 -30 346 0
-6 346 -347 0
6 -346 -347 0
346 -346 -347 0
347 -372 0
-31 -348 0
32 -348 0
31 -32 348 0
-7 348 -349 0
7 -348 -349 0
348 -348 -349 0
349 -372 0
-33 -350 0
34 -350 0
33 -34 350 0
-8 350 -351 0
8 -350 -351 0
350 -350 -351 0
351 -372 0
-35 -352 0
36 -352 0
35 -36 352 0
-9 352 -353 0
9 -352 -353 0
352 -352 -353 0
353 -372 0
-37 -354 0
38 -354 0
37 -38 354 0
-10 354 -355 0
10 -354 -355 0
354 -354 -355 0
355 -372 0
-39 -356 0
40 -356 0
39 -40 356 0
-11 356 -357 0
11 -356 -357 0
356 -356 -357 0
357 -372 0
-41 -358 0
42 -358 0
41 -42 358 0
-12 358 -359 0
12 -358 -359 0
358 -358 -359 0
359 -372 0
-43 -360 0
44 -360 0
43 -44 360 0
-13 360 -361 0
13 -360 -361 0
360 -360 -361 0
361 -372 0
-45 -362 0
46 -362 0
45 -46 362 0
-14 362 -363 0
14 -362 -363 0
362 -362 -363 0
363 -372 0
-47 -364 0
48 -364 0
47 -48 364 0
-15 364 -365 0
15 -364 -365 0
364 -364 -365 0
365 -372 0
-49 -366 0
50 -366 0
49 -50 366 0
-16 366 -367 0
16 -366 -367 0
366 -366 -367 0
367 -372 0
-51 -368 0
52 -368 0
51 -52 368 0
-17 368 -369 0
17 -368 -369 0
368 -368 -369 0
369 -372 0
-53 -370 0
54 -370 0
53 -54 370 0
-18 370 -371 0
18 -370 -371 0
370 -370 -371 0
371 -372 0
372 -742 0
-24 -373 0
-22 -373 0
-20 -373 0
373 -375 0
19 -374 0
21 -374 0
23 -374 0
374 -375 0
-30 -376 0
-28 -376 0
-26 -376 0
376 -378 0
25 -377 0
27 -377 0
29 -377 0
377 -378 0
-36 -379 0
-34 -379 0
-32 -379 0
379 -381 0
31 -380 0
33 -380 0
35 -380 0
380 -381 0
-42 -382 0
-40 -382 0
-38 -382 0
382 -384 0
37 -383 0
39 -383 0
41 -383 0
383 -384 0
-48 -385 0
-46 -385 0
-44 -385 0
385 -387 0
43 -386 0
45 -386 0
47 -386 0
386 -387 0
-54 -388 0
-52 -388 0
-50 -388 0
388 -390 0
49 -389 0
51 -389 0
53 -389 0
389 -390 0
375 378 381 384 387 390 -391 0
391 -414 0
1 -392 0
375 -392 0
4 -395 0
378 -395 0
7 -398 0
381 -398 0
10 -401 0
384 -401 0
13 -404 0
387 -404 0
16 -407 0
390 -407 0
392 395 398 401 404 407 -410 0
410 -414 0
391 -416 0
2 -393 0
375 -393 0
5 -396 0
378 -396 0
8 -399 0
381 -399 0
11 -402 0
384 -402 0
14 -405 0
387 -405 0
17 -408 0
390 -408 0
393 396 399 402 405 408 -411 0
411 -416 0
391 -418 0
3 -394 0
375 -394 0
6 -397 0
378 -397 0
9 -400 0
381 -400 0
12 -403 0
384 -403 0
15 -406 0
387 -406 0
18 -409 0
390 -409 0
394 397 400 403 406 409 -412 0
412 -418 0
-23 -419 0
-22 -419 0
-20 -419 0
23 22 20 419 0
419 -421 0
19 -420 0
21 -420 0
24 -420 0
-19 -21 -24 420 0
420 -421 0
-419 -420 421 0
-29 -422 0
-28 -422 0
-26 -422 0
29 28 26 422 0
422 -424 0
25 -423 0
27 -423 0
30 -423 0
-25 -27 -30 423 0
423 -424 0
-422 -423 424 0
-35 -425 0
-34 -425 0
-32 -425 0
35 34 32 425 0
425 -427 0
31 -426 0
33 -426 0
36 -426 0
-31 -33 -36 426 0
426 -427 0
-425 -426 427 0
-41 -428 0
-40 -428 0
-38 -428 0
41 40 38 428 0
428 -430 0
37 -429 0
39 -429 0
42 -429 0
-37 -39 -42 429 0
429 -430 0
-428 -429 430 0
-47 -431 0
-46 -431 0
-44 -431 0
47 46 44 431 0
431 -433 0
43 -432 0
45 -432 0
48 -432 0
-43 -45 -48 432 0
432 -433 0
-431 -432 433 0
-53 -434 0
-52 -434 0
-50 -434 0
53 52 50 434 0
434 -436 0
49 -435 0
51 -435 0
54 -435 0
-49 -51 -54 435 0
435 -436 0
-434 -435 436 0
421 424 427 430 433 436 -437 0
437 -460 0
1 -438 0
421 -438 0
4 -441 0
424 -441 0
7 -444 0
427 -444 0
10 -447 0
430 -447 0
13 -450 0
433 -450 0
16 -453 0
436 -453 0
438 441 444 447 450 453 -456 0
456 -460 0
437 -462 0
2 -439 0
421 -439 0
5 -442 0
424 -442 0
8 -445 0
427 -445 0
11 -448 0
430 -448 0
14 -451 0
433 -451 0
17 -454 0
436 -454 0
439 442 445 448 451 454 -457 0
457 -462 0
-3 -421 440 0
-440 458 0
-6 -424 443 0
-443 458 0
-9 -427 446 0
-446 458 0
-12 -430 449 0
-449 458 0
-15 -433 452 0
-452 458 0
-18 -436 455 0
-455 458 0
-458 -463 0
437 -463 0
-24 -465 0
-21 -465 0
-20 -465 0
24 21 20 465 0
465 -467 0
19 -466 0
22 -466 0
23 -466 0
-19 -22 -23 466 0
466 -467 0
-465 -466 467 0
-30 -468 0
-27 -468 0
-26 -468 0
30 27 26 468 0
468 -470 0
25 -469 0
28 -469 0
29 -469 0
-25 -28 -29 469 0
469 -470 0
-468 -469 470 0
-36 -471 0
-33 -471 0
-32 -471 0
36 33 32 471 0
471 -473 0
31 -472 0
34 -472 0
35 -472 0
-31 -34 -35 472 0
472 -473 0
-471 -472 473 0
-42 -474 0
-39 -474 0
-38 -474 0
42 39 38 474 0
474 -476 0
37 -475 0
40 -475 0
41 -475 0
-37 -40 -41 475 0
475 -476 0
-474 -475 476 0
-48 -477 0
-45 -477 0
-44 -477 0
48 45 44 477 0
477 -479 0
43 -478 0
46 -478 0
47 -478 0
-43 -46 -47 478 0
478 -479 0
-477 -478 479 0
-54 -480 0
-51 -480 0
-50 -480 0
54 51 50 480 0
480 -482 0
49 -481 0
52 -481 0
53 -481 0
-49 -52 -53 481 0
481 -482 0
-480 -481 482 0
467 470 473 476 479 482 -483 0
483 -506 0
1 -484 0
467 -484 0
4 -487 0
470 -487 0
7 -490 0
473 -490 0
10 -493 0
476 -493 0
13 -496 0
479 -496 0
16 -499 0
482 -499 0
484 487 490 493 496 499 -502 0
502 -506 0
-2 -467 485 0
-485 503 0
-5 -470 488 0
-488 503 0
-8 -473 491 0
-491 503 0
-11 -476 494 0
-494 503 0
-14 -479 497 0
-497 503 0
-17 -482 500 0
-500 503 0
-503 -507 0
483 -507 0
483 -510 0
3 -486 0
467 -486 0
6 -489 0
470 -489 0
9 -492 0
473 -492 0
12 -495 0
476 -495 0
15 -498 0
479 -498 0
18 -501 0
482 -501 0
486 489 492 495 498 501 -504 0
504 -510 0
-23 -511 0
-21 -511 0
-20 -511 0
23 21 20 511 0
511 -513 0
19 -512 0
22 -512 0
24 -512 0
-19 -22 -24 512 0
512 -513 0
-511 -512 513 0
-29 -514 0
-27 -514 0
-26 -514 0
29 27 26 514 0
514 -516 0
25 -515 0
28 -515 0
30 -515 0
-25 -28 -30 515 0
515 -516 0
-514 -515 516 0
-35 -517 0
-33 -517 0
-32 -517 0
35 33 32 517 0
517 -519 0
31 -518 0
34 -518 0
36 -518 0
-31 -34 -36 518 0
518 -519 0
-517 -518 519 0
-41 -520 0
-39 -520 0
-38 -520 0
41 39 38 520 0
520 -522 0
37 -521 0
40 -521 0
42 -521 0
-37 -40 -42 521 0
521 -522 0
-520 -521 522 0
-47 -523 0
-45 -523 0
-44 -523 0
47 45 44 523 0
523 -525 0
43 -524 0
46 -524 0
48 -524 0
-43 -46 -48 524 0
524 -525 0
-523 -524 525 0
-53 -526 0
-51 -526 0
-50 -526 0
53 51 50 526 0
526 -528 0
49 -527 0
52 -527 0
54 -527 0
-49 -52 -54 527 0
527 -528 0
-526 -527 528 0
513 516 519 522 525 528 -529 0
529 -552 0
1 -530 0
513 -530 0
4 -533 0
516 -533 0
7 -536 0
519 -536 0
10 -539 0
522 -539 0
13 -542 0
525 -542 0
16 -545 0
528 -545 0
530 533 536 539 542 545 -548 0
548 -552 0
-2 -513 531 0
-531 549 0
-5 -516 534 0
-534 549 0
-8 -519 537 0
-537 549 0
-11 -522 540 0
-540 549 0
-14 -525 543 0
-543 549 0
-17 -528 546 0
-546 549 0
-549 -553 0
529 -553 0
-3 -513 532 0
-532 550 0
-6 -516 535 0
-535 550 0
-9 -519 538 0
-538 550 0
-12 -522 541 0
-541 550 0
-15 -525 544 0
-544 550 0
-18 -528 547 0
-547 550 0
-550 -555 0
529 -555 0
-24 -557 0
-22 -557 0
-19 -557 0
24 22 19 557 0
557 -559 0
20 -558 0
21 -558 0
23 -558 0
-20 -21 -23 558 0
558 -559 0
-557 -558 559 0
-1 -559 576 0
-576 594 0
-30 -560 0
-28 -560 0
-25 -560 0
30 28 25 560 0
560 -562 0
26 -561 0
27 -561 0
29 -561 0
-26 -27 -29 561 0
561 -562 0
-560 -561 562 0
-4 -562 579 0
-579 594 0
-36 -563 0
-34 -563 0
-31 -563 0
36 34 31 563 0
563 -565 0
32 -564 0
33 -564 0
35 -564 0
-32 -33 -35 564 0
564 -565 0
-563 -564 565 0
-7 -565 582 0
-582 594 0
-42 -566 0
-40 -566 0
-37 -566 0
42 40 37 566 0
566 -568 0
38 -567 0
39 -567 0
41 -567 0
-38 -39 -41 567 0
567 -568 0
-566 -567 568 0
-10 -568 585 0
-585 594 0
-48 -569 0
-46 -569 0
-43 -569 0
48 46 43 569 0
569 -571 0
44 -570 0
45 -570 0
47 -570 0
-44 -45 -47 570 0
570 -571 0
-569 -570 571 0
-13 -571 588 0
-588 594 0
-54 -572 0
-52 -572 0
-49 -572 0
54 52 49 572 0
572 -574 0
50 -573 0
51 -573 0
53 -573 0
-50 -51 -53 573 0
573 -574 0
-572 -573 574 0
-16 -574 591 0
-591 594 0
-594 -597 0
559 562 565 568 571 574 -575 0
575 -597 0
575 -600 0
2 -577 0
559 -577 0
5 -580 0
562 -580 0
8 -583 0
565 -583 0
11 -586 0
568 -586 0
14 -589 0
571 -589 0
17 -592 0
574 -592 0
577 580 583 586 589 592 -595 0
595 -600 0
575 -602 0
3 -578 0
559 -578 0
6 -581 0
562 -581 0
9 -584 0
565 -584 0
12 -587 0
568 -587 0
15 -590 0
571 -590 0
18 -593 0
574 -593 0
578 581 584 587 590 593 -596 0
596 -602 0
-23 -603 0
-22 -603 0
-19 -603 0
23 22 19 603 0
603 -605 0
20 -604 0
21 -604 0
24 -604 0
-20 -21 -24 604 0
604 -605 0
-603 -604 605 0
-1 -605 622 0
-622 640 0
-29 -606 0
-28 -606 0
-25 -606 0
29 28 25 606 0
606 -608 0
26 -607 0
27 -607 0
30 -607 0
-26 -27 -30 607 0
607 -608 0
-606 -607 608 0
-4 -608 625 0
-625 640 0
-35 -609 0
-34 -609 0
-31 -609 0
35 34 31 609 0
609 -611 0
32 -610 0
33 -610 0
36 -610 0
-32 -33 -36 610 0
610 -611 0
-609 -610 611 0
-7 -611 628 0
-628 640 0
-41 -612 0
-40 -612 0
-37 -612 0
41 40 37 612 0
612 -614 0
38 -613 0
39 -613 0
42 -613 0
-38 -39 -42 613 0
613 -614 0
-612 -613 614 0
-10 -614 631 0
-631 640 0
-47 -615 0
-46 -615 0
-43 -615 0
47 46 43 615 0
615 -617 0
44 -616 0
45 -616 0
48 -616 0
-44 -45 -48 616 0
616 -617 0
-615 -616 617 0
-13 -617 634 0
-634 640 0
-53 -618 0
-52 -618 0
-49 -618 0
53 52 49 618 0
618 -620 0
50 -619 0
51 -619 0
54 -619 0
-50 -51 -54 619 0
619 -620 0
-618 -619 620 0
-16 -620 637 0
-637 640 0
-640 -643 0
605 608 611 614 617 620 -621 0
621 -643 0
621 -646 0
2 -623 0
605 -623 0
5 -626 0
608 -626 0
8 -629 0
611 -629 0
11 -632 0
614 -632 0
14 -635 0
617 -635 0
17 -638 0
620 -638 0
623 626 629 632 635 638 -641 0
641 -646 0
-3 -605 624 0
-624 642 0
-6 -608 627 0
-627 642 0
-9 -611 630 0
-630 642 0
-12 -614 633 0
-633 642 0
-15 -617 636 0
-636 642 0
-18 -620 639 0
-639 642 0
-642 -647 0
621 -647 0
-24 -649 0
-21 -649 0
-19 -649 0
24 21 19 649 0
649 -651 0
20 -650 0
22 -650 0
23 -650 0
-20 -22 -23 650 0
650 -651 0
-649 -650 651 0
-1 -651 668 0
-668 686 0
-30 -652 0
-27 -652 0
-25 -652 0
30 27 25 652 0
652 -654 0
26 -653 0
28 -653 0
29 -653 0
-26 -28 -29 653 0
653 -654 0
-652 -653 654 0
-4 -654 671 0
-671 686 0
-36 -655 0
-33 -655 0
-31 -655 0
36 33 31 655 0
655 -657 0
32 -656 0
34 -656 0
35 -656 0
-32 -34 -35 656 0
656 -657 0
-655 -656 657 0
-7 -657 674 0
-674 686 0
-42 -658 0
-39 -658 0
-37 -658 0
42 39 37 658 0
658 -660 0
38 -659 0
40 -659 0
41 -659 0
-38 -40 -41 659 0
659 -660 0
-658 -659 660 0
-10 -660 677 0
-677 686 0
-48 -661 0
-45 -661 0
-43 -661 0
48 45 43 661 0
661 -663 0
44 -662 0
46 -662 0
47 -662 0
-44 -46 -47 662 0
662 -663 0
-661 -662 663 0
-13 -663 680 0
-680 686 0
-54 -664 0
-51 -664 0
-49 -664 0
54 51 49 664 0
664 -666 0
50 -665 0
52 -665 0
53 -665 0
-50 -52 -53 665 0
665 -666 0
-664 -665 666 0
-16 -666 683 0
-683 686 0
-686 -689 0
651 654 657 660 663 666 -667 0
667 -689 0
-2 -651 669 0
-669 687 0
-5 -654 672 0
-672 687 0
-8 -657 675 0
-675 687 0
-11 -660 678 0
-678 687 0
-14 -663 681 0
-681 687 0
-17 -666 684 0
-684 687 0
-687 -691 0
667 -691 0
667 -694 0
3 -670 0
651 -670 0
6 -673 0
654 -673 0
9 -676 0
657 -676 0
12 -679 0
660 -679 0
15 -682 0
663 -682 0
18 -685 0
666 -685 0
670 673 676 679 682 685 -688 0
688 -694 0
-23 -695 0
-21 -695 0
-19 -695 0
23 21 19 695 0
695 -697 0
20 -696 0
22 -696 0
24 -696 0
-20 -22 -24 696 0
696 -697 0
-695 -696 697 0
-1 -697 714 0
-714 732 0
-29 -698 0
-27 -698 0
-25 -698 0
29 27 25 698 0
698 -700 0
26 -699 0
28 -699 0
30 -699 0
-26 -28 -30 699 0
699 -700 0
-698 -699 700 0
-4 -700 717 0
-717 732 0
-35 -701 0
-33 -701 0
-31 -701 0
35 33 31 701 0
701 -703 0
32 -702 0
34 -702 0
36 -702 0
-32 -34 -36 702 0
702 -703 0
-701 -702 703 0
-7 -703 720 0
-720 732 0
-41 -704 0
-39 -704 0
-37 -704 0
41 39 37 704 0
704 -706 0
38 -705 0
40 -705 0
42 -705 0
-38 -40 -42 705 0
705 -706 0
-704 -705 706 0
-10 -706 723 0
-723 732 0
-47 -707 0
-45 -707 0
-43 -707 0
47 45 43 707 0
707 -709 0
44 -708 0
46 -708 0
48 -708 0
-44 -46 -48 708 0
708 -709 0
-707 -708 709 0
-13 -709 726 0
-726 732 0
-53 -710 0
-51 -710 0
-49 -710 0
53 51 49 710 0
710 -712 0
50 -711 0
52 -711 0
54 -711 0
-50 -52 -54 711 0
711 -712 0
-710 -711 712 0
-16 -712 729 0
-729 732 0
-732 -735 0
697 700 703 706 709 712 -713 0
713 -735 0
-2 -697 715 0
-715 733 0
-5 -700 718 0
-718 733 0
-8 -703 721 0
-721 733 0
-11 -706 724 0
-724 733 0
-14 -709 727 0
-727 733 0
-17 -712 730 0
-730 733 0
-733 -737 0
713 -737 0
-3 -697 716 0
-716 734 0
-6 -700 719 0
-719 734 0
-9 -703 722 0
-722 734 0
-12 -706 725 0
-725 734 0
-15 -709 728 0
-728 734 0
-18 -712 731 0
-731 734 0
-734 -739 0
713 -739 0
414 416 418 460 462 463 506 507 510 552 553 555 597 600 602 643 646 647 689 691 694 735 737 739 -741 0
741 -742 0
-1 4 -743 0
743 -771 0
-1 -4 744 0
1 4 744 0
-4 4 744 0
-2 5 -745 0
-744 745 -746 0
746 -771 0
-2 -5 747 0
2 5 747 0
-5 5 747 0
-744 -747 748 0
-3 6 -749 0
-748 749 -750 0
750 -771 0
-3 -6 751 0
3 6 751 0
-6 6 751 0
-748 -751 752 0
-752 110 -753 0
753 -771 0
-19 -25 754 0
19 25 754 0
-25 25 754 0
-752 -754 755 0
-755 111 -756 0
756 -771 0
-20 -26 757 0
20 26 757 0
-26 26 757 0
-755 -757 758 0
-758 112 -759 0
759 -771 0
-21 -27 760 0
21 27 760 0
-27 27 760 0
-758 -760 761 0
-761 113 -762 0
762 -771 0
-22 -28 763 0
22 28 763 0
-28 28 763 0
-761 -763 764 0
-764 114 -765 0
765 -771 0
-23 -29 766 0
23 29 766 0
-29 29 766 0
-764 -766 767 0
-767 115 -768 0
768 -771 0
771 -888 0
-4 7 -772 0
772 -800 0
-4 -7 773 0
4 7 773 0
-7 7 773 0
-5 8 -774 0
-773 774 -775 0
775 -800 0
-5 -8 776 0
5 8 776 0
-8 8 776 0
-773 -776 777 0
-6 9 -778 0
-777 778 -779 0
779 -800 0
-6 -9 780 0
6 9 780 0
-9 9 780 0
-777 -780 781 0
-781 185 -782 0
782 -800 0
-25 -31 783 0
25 31 783 0
-31 31 783 0
-781 -783 784 0
-784 186 -785 0
785 -800 0
-26 -32 786 0
26 32 786 0
-32 32 786 0
-784 -786 787 0
-787 187 -788 0
788 -800 0
-27 -33 789 0
27 33 789 0
-33 33 789 0
-787 -789 790 0
-790 188 -791 0
791 -800 0
-28 -34 792 0
28 34 792 0
-34 34 792 0
-790 -792 793 0
-793 189 -794 0
794 -800 0
-29 -35 795 0
29 35 795 0
-35 35 795 0
-793 -795 796 0
-796 190 -797 0
797 -800 0
800 -888 0
-7 10 -801 0
801 -829 0
-7 -10 802 0
7 10 802 0
-10 10 802 0
-8 11 -803 0
-802 803 -804 0
804 -829 0
-8 -11 805 0
8 11 805 0
-11 11 805 0
-802 -805 806 0
-9 12 -807 0
-806 807 -808 0
808 -829 0
-9 -12 809 0
9 12 809 0
-12 12 809 0
-806 -809 810 0
-810 245 -811 0
811 -829 0
-31 -37 812 0
31 37 812 0
-37 37 812 0
-810 -812 813 0
-813 246 -814 0
814 -829 0
-32 -38 815 0
32 38 815 0
-38 38 815 0
-813 -815 816 0
-816 247 -817 0
817 -829 0
-33 -39 818 0
33 39 818 0
-39 39 818 0
-816 -818 819 0
-819 248 -820 0
820 -829 0
-34 -40 821 0
34 40 821 0
-40 40 821 0
-819 -821 822 0
-822 249 -823 0
823 -829 0
-35 -41 824 0
35 41 824 0
-41 41 824 0
-822 -824 825 0
-825 250 -826 0
826 -829 0
829 -888 0
-10 13 -830 0
830 -858 0
-10 -13 831 0
10 13 831 0
-13 13 831 0
-11 14 -832 0
-831 832 -833 0
833 -858 0
-11 -14 834 0
11 14 834 0
-14 14 834 0
-831 -834 835 0
-12 15 -836 0
-835 836 -837 0
837 -858 0
-12 -15 838 0
12 15 838 0
-15 15 838 0
-835 -838 839 0
-839 290 -840 0
840 -858 0
-37 -43 841 0
37 43 841 0
-43 43 841 0
-839 -841 842 0
-842 291 -843 0
843 -858 0
-38 -44 844 0
38 44 844 0
-44 44 844 0
-842 -844 845 0
-845 292 -846 0
846 -858 0
-39 -45 847 0
39 45 847 0
-45 45 847 0
-845 -847 848 0
-848 293 -849 0
849 -858 0
-40 -46 850 0
40 46 850 0
-46 46 850 0
-848 -850 851 0
-851 294 -852 0
852 -858 0
-41 -47 853 0
41 47 853 0
-47 47 853 0
-851 -853 854 0
-854 295 -855 0
855 -858 0
858 -888 0
-13 16 -859 0
859 -887 0
-13 -16 860 0
13 16 860 0
-16 16 860 0
-14 17 -861 0
-860 861 -862 0
862 -887 0
-14 -17 863 0
14 17 863 0
-17 17 863 0
-860 -863 864 0
-15 18 -865 0
-864 865 -866 0
866 -887 0
-15 -18 867 0
15 18 867 0
-18 18 867 0
-864 -867 868 0
-868 320 -869 0
869 -887 0
-43 -49 870 0
43 49 870 0
-49 49 870 0
-868 -870 871 0
-871 321 -872 0
872 -887 0
-44 -50 873 0
44 50 873 0
-50 50 873 0
-871 -873 874 0
-874 322 -875 0
875 -887 0
-45 -51 876 0
45 51 876 0
-51 51 876 0
-874 -876 877 0
-877 323 -878 0
878 -887 0
-46 -52 879 0
46 52 879 0
-52 52 879 0
-877 -879 880 0
-880 324 -881 0
881 -887 0
-47 -53 882 0
47 53 882 0
-53 53 882 0
-880 -882 883 0
-883 325 -884 0
884 -887 0
887 -888 0
742 0
888 0
